(set-logic ALL)
(set-option :produce-models true)
(declare-sort BoundSet 0)
(declare-sort UnboundSet 0)
(declare-fun IsInOvercoat (BoundSet) Bool)
(declare-fun IsPuttingOnGloves (BoundSet) Bool)
(declare-fun IsInSubwayStation (BoundSet) Bool)
(assert (not (=> (exists ((b BoundSet)) (and (IsInOvercoat b) (and (IsPuttingOnGloves b) (IsInSubwayStation b)))) (exists ((d BoundSet)) (IsInSubwayStation d)))))
(check-sat)
(get-model)